data/CVRPLIB/Vrp-Set-XML100/instances/XML100_1111_01.vrp
NAME : XML100_1111_01
COMMENT : Generated by Queiroga, Sadykov, Uchoa, and Vidal (2021)
TYPE : CVRP
DIMENSION : 101
EDGE_WEIGHT_TYPE : EUC_2D
CAPACITY : 4
NODE_COORD_SECTION
1    764  255 
2    303  588 
3    445  722 
4    993  860 
5    34   242 
6    900  18  
7    290  21  
8    395  576 
9    505  589 
10   838  557 
11   756  249 
12   29   221 
13   613  458 
14   43   704 
15   673  83  
16   798  517 
17   218  460 
18   233  231 
19   28   229 
20   306  859 
21   514  953 
22   490  29  
23   310  940 
24   173  549 
25   393  170 
26   378  347 
27   861  232 
28   228  946 
29   868  974 
30   433  194 
31   121  333 
32   510  209 
33   722  711 
34   940  381 
35   703  675 
36   421  188 
37   704  509 
38   797  817 
39   269  548 
40   223  649 
41   344  69  
42   23   386 
43   220  976 
44   744  416 
45   958  5   
46   205  674 
47   809  519 
48   521  393 
49   763  2   
50   968  876 
51   836  433 
52   570  200 
53   830  670 
54   16   14  
55   20   17  
56   502  983 
57   678  545 
58   375  439 
59   561  426 
60   58   298 
61   104  666 
62   25   541 
63   505  485 
64   902  30  
65   570  171 
66   109  625 
67   578  459 
68   606  817 
69   296  500 
70   168  273 
71   325  872 
72   652  789 
73   984  593 
74   771  540 
75   879  37  
76   322  474 
77   321  631 
78   495  449 
79   883  847 
80   357  346 
81   160  705 
82   93   28  
83   177  585 
84   508  779 
85   146  719 
86   56   870 
87   159  527 
88   539  624 
89   108  900 
90   712  455 
91   937  422 
92   887  741 
93   820  963 
94   216  422 
95   861  799 
96   438  496 
97   252  8   
98   784  821 
99   798  414 
100  255  842 
101  642  186 
DEMAND_SECTION
1    0   
2    1   
3    1   
4    1   
5    1   
6    1   
7    1   
8    1   
9    1   
10   1   
11   1   
12   1   
13   1   
14   1   
15   1   
16   1   
17   1   
18   1   
19   1   
20   1   
21   1   
22   1   
23   1   
24   1   
25   1   
26   1   
27   1   
28   1   
29   1   
30   1   
31   1   
32   1   
33   1   
34   1   
35   1   
36   1   
37   1   
38   1   
39   1   
40   1   
41   1   
42   1   
43   1   
44   1   
45   1   
46   1   
47   1   
48   1   
49   1   
50   1   
51   1   
52   1   
53   1   
54   1   
55   1   
56   1   
57   1   
58   1   
59   1   
60   1   
61   1   
62   1   
63   1   
64   1   
65   1   
66   1   
67   1   
68   1   
69   1   
70   1   
71   1   
72   1   
73   1   
74   1   
75   1   
76   1   
77   1   
78   1   
79   1   
80   1   
81   1   
82   1   
83   1   
84   1   
85   1   
86   1   
87   1   
88   1   
89   1   
90   1   
91   1   
92   1   
93   1   
94   1   
95   1   
96   1   
97   1   
98   1   
99   1   
100  1   
101  1   
DEPOT_SECTION
1
-1
EOF
