data/CVRPLIB/Vrp-Set-XML100/solutions/XML100_1111_01.sol
Route #1: 98 46 15 73
Route #2: 12 66 58 47
Route #3: 82 23 86 16
Route #4: 65 60 13 61
Route #5: 85 88 42 27
Route #6: 43 36 56 89
Route #7: 45 84 80 39
Route #8: 74 63 5 44
Route #9: 72 91 52 9
Route #10: 2 55 20 83
Route #11: 40 96 6 21
Route #12: 67 71 32 34
Route #13: 95 68 75 57
Route #14: 81 53 54 17
Route #15: 92 28 49 3
Route #16: 38 1 76 7
Route #17: 87 8 62 77
Route #18: 69 4 18 11
Route #19: 26 33 90 50
Route #20: 64 24 35 29
Route #21: 97 37 78 94
Route #22: 48 14 100 10
Route #23: 99 19 22 70
Route #24: 51 31 79 25
Route #25: 93 41 59 30
Cost 29888
